language Essence 1.3
letting nnodes be 60
letting nrings be 30
letting capacity be 30
letting demand be 
{{1, 2},
{1, 5},
{1, 6},
{1, 8},
{1, 9},
{1, 10},
{1, 13},
{1, 14},
{1, 16},
{1, 19},
{1, 20},
{1, 22},
{1, 29},
{1, 30},
{1, 31},
{1, 32},
{1, 34},
{1, 36},
{1, 38},
{1, 39},
{1, 41},
{1, 42},
{1, 43},
{1, 44},
{1, 45},
{1, 46},
{1, 47},
{1, 51},
{1, 53},
{1, 56},
{1, 57},
{1, 60},
{2, 3},
{2, 6},
{2, 8},
{2, 9},
{2, 10},
{2, 11},
{2, 14},
{2, 15},
{2, 18},
{2, 20},
{2, 24},
{2, 29},
{2, 31},
{2, 35},
{2, 40},
{2, 41},
{2, 42},
{2, 43},
{2, 45},
{2, 46},
{2, 49},
{2, 51},
{2, 53},
{2, 55},
{2, 56},
{2, 58},
{2, 60},
{3, 4},
{3, 6},
{3, 8},
{3, 9},
{3, 12},
{3, 13},
{3, 14},
{3, 16},
{3, 17},
{3, 21},
{3, 22},
{3, 24},
{3, 26},
{3, 29},
{3, 30},
{3, 31},
{3, 35},
{3, 36},
{3, 37},
{3, 38},
{3, 40},
{3, 41},
{3, 43},
{3, 44},
{3, 49},
{3, 50},
{3, 51},
{3, 54},
{3, 57},
{3, 58},
{3, 60},
{4, 6},
{4, 7},
{4, 8},
{4, 9},
{4, 15},
{4, 16},
{4, 17},
{4, 18},
{4, 23},
{4, 25},
{4, 26},
{4, 28},
{4, 33},
{4, 35},
{4, 38},
{4, 39},
{4, 41},
{4, 42},
{4, 46},
{4, 47},
{4, 48},
{4, 50},
{4, 51},
{4, 54},
{4, 60},
{5, 10},
{5, 16},
{5, 17},
{5, 18},
{5, 19},
{5, 20},
{5, 21},
{5, 24},
{5, 26},
{5, 27},
{5, 29},
{5, 30},
{5, 31},
{5, 32},
{5, 33},
{5, 36},
{5, 37},
{5, 42},
{5, 45},
{5, 50},
{5, 56},
{5, 59},
{5, 60},
{6, 9},
{6, 11},
{6, 12},
{6, 13},
{6, 14},
{6, 15},
{6, 16},
{6, 19},
{6, 21},
{6, 26},
{6, 29},
{6, 31},
{6, 33},
{6, 35},
{6, 36},
{6, 41},
{6, 43},
{6, 44},
{6, 47},
{6, 48},
{6, 52},
{6, 54},
{6, 57},
{7, 10},
{7, 11},
{7, 12},
{7, 13},
{7, 15},
{7, 16},
{7, 18},
{7, 20},
{7, 22},
{7, 23},
{7, 25},
{7, 26},
{7, 27},
{7, 29},
{7, 30},
{7, 31},
{7, 32},
{7, 33},
{7, 35},
{7, 37},
{7, 39},
{7, 42},
{7, 45},
{7, 50},
{7, 51},
{7, 52},
{7, 53},
{7, 54},
{7, 55},
{7, 57},
{7, 58},
{7, 59},
{8, 9},
{8, 10},
{8, 11},
{8, 13},
{8, 14},
{8, 15},
{8, 16},
{8, 19},
{8, 20},
{8, 22},
{8, 23},
{8, 28},
{8, 31},
{8, 33},
{8, 34},
{8, 35},
{8, 37},
{8, 39},
{8, 40},
{8, 47},
{8, 48},
{8, 49},
{8, 50},
{8, 51},
{8, 52},
{8, 55},
{8, 56},
{8, 57},
{8, 59},
{9, 11},
{9, 16},
{9, 17},
{9, 18},
{9, 20},
{9, 25},
{9, 29},
{9, 35},
{9, 37},
{9, 38},
{9, 39},
{9, 42},
{9, 47},
{9, 48},
{9, 55},
{9, 58},
{10, 14},
{10, 15},
{10, 16},
{10, 17},
{10, 20},
{10, 21},
{10, 22},
{10, 25},
{10, 28},
{10, 30},
{10, 31},
{10, 32},
{10, 33},
{10, 36},
{10, 38},
{10, 39},
{10, 42},
{10, 47},
{10, 48},
{10, 49},
{10, 51},
{10, 52},
{10, 53},
{10, 54},
{10, 57},
{10, 59},
{11, 12},
{11, 15},
{11, 16},
{11, 17},
{11, 20},
{11, 21},
{11, 26},
{11, 28},
{11, 29},
{11, 31},
{11, 32},
{11, 33},
{11, 36},
{11, 39},
{11, 40},
{11, 41},
{11, 42},
{11, 43},
{11, 50},
{11, 51},
{11, 53},
{11, 54},
{11, 56},
{11, 60},
{12, 14},
{12, 18},
{12, 19},
{12, 20},
{12, 23},
{12, 24},
{12, 25},
{12, 27},
{12, 29},
{12, 31},
{12, 32},
{12, 34},
{12, 37},
{12, 38},
{12, 39},
{12, 40},
{12, 41},
{12, 45},
{12, 46},
{12, 50},
{12, 51},
{12, 54},
{12, 55},
{12, 56},
{12, 57},
{12, 58},
{12, 59},
{12, 60},
{13, 15},
{13, 19},
{13, 22},
{13, 24},
{13, 25},
{13, 26},
{13, 28},
{13, 30},
{13, 31},
{13, 32},
{13, 34},
{13, 35},
{13, 36},
{13, 37},
{13, 39},
{13, 41},
{13, 42},
{13, 45},
{13, 50},
{13, 52},
{13, 53},
{13, 55},
{13, 58},
{14, 15},
{14, 16},
{14, 17},
{14, 19},
{14, 22},
{14, 24},
{14, 27},
{14, 30},
{14, 31},
{14, 35},
{14, 36},
{14, 38},
{14, 39},
{14, 41},
{14, 42},
{14, 43},
{14, 44},
{14, 45},
{14, 46},
{14, 49},
{14, 50},
{14, 51},
{14, 56},
{14, 57},
{14, 59},
{14, 60},
{15, 17},
{15, 18},
{15, 20},
{15, 22},
{15, 25},
{15, 26},
{15, 31},
{15, 33},
{15, 35},
{15, 39},
{15, 45},
{15, 46},
{15, 48},
{15, 49},
{15, 52},
{15, 58},
{15, 59},
{15, 60},
{16, 18},
{16, 19},
{16, 21},
{16, 24},
{16, 25},
{16, 26},
{16, 28},
{16, 30},
{16, 33},
{16, 34},
{16, 35},
{16, 37},
{16, 38},
{16, 41},
{16, 42},
{16, 43},
{16, 44},
{16, 46},
{16, 47},
{16, 54},
{16, 55},
{16, 56},
{16, 57},
{16, 58},
{17, 22},
{17, 27},
{17, 29},
{17, 31},
{17, 34},
{17, 36},
{17, 37},
{17, 42},
{17, 44},
{17, 45},
{17, 52},
{17, 53},
{17, 55},
{18, 19},
{18, 20},
{18, 21},
{18, 22},
{18, 24},
{18, 25},
{18, 26},
{18, 27},
{18, 29},
{18, 34},
{18, 37},
{18, 38},
{18, 39},
{18, 41},
{18, 42},
{18, 43},
{18, 45},
{18, 48},
{18, 50},
{18, 52},
{18, 54},
{18, 55},
{18, 56},
{18, 57},
{18, 58},
{18, 59},
{18, 60},
{19, 21},
{19, 22},
{19, 25},
{19, 27},
{19, 28},
{19, 29},
{19, 34},
{19, 35},
{19, 40},
{19, 43},
{19, 46},
{19, 47},
{19, 52},
{19, 54},
{19, 58},
{19, 60},
{20, 21},
{20, 22},
{20, 23},
{20, 24},
{20, 25},
{20, 26},
{20, 27},
{20, 29},
{20, 31},
{20, 37},
{20, 38},
{20, 41},
{20, 42},
{20, 43},
{20, 44},
{20, 45},
{20, 47},
{20, 48},
{20, 51},
{20, 52},
{20, 54},
{20, 55},
{20, 57},
{21, 22},
{21, 24},
{21, 27},
{21, 31},
{21, 32},
{21, 34},
{21, 37},
{21, 39},
{21, 44},
{21, 46},
{21, 47},
{21, 48},
{21, 49},
{21, 51},
{21, 54},
{21, 57},
{21, 59},
{22, 23},
{22, 26},
{22, 28},
{22, 32},
{22, 33},
{22, 35},
{22, 37},
{22, 41},
{22, 45},
{22, 47},
{22, 55},
{22, 56},
{22, 57},
{22, 58},
{22, 59},
{23, 26},
{23, 27},
{23, 28},
{23, 29},
{23, 30},
{23, 31},
{23, 32},
{23, 33},
{23, 36},
{23, 37},
{23, 38},
{23, 39},
{23, 40},
{23, 42},
{23, 45},
{23, 46},
{23, 47},
{23, 49},
{23, 50},
{23, 51},
{23, 53},
{23, 54},
{23, 55},
{23, 59},
{23, 60},
{24, 25},
{24, 29},
{24, 30},
{24, 33},
{24, 34},
{24, 35},
{24, 38},
{24, 39},
{24, 40},
{24, 44},
{24, 46},
{24, 47},
{24, 48},
{24, 49},
{24, 51},
{24, 52},
{24, 56},
{24, 57},
{24, 60},
{25, 27},
{25, 28},
{25, 30},
{25, 32},
{25, 38},
{25, 39},
{25, 42},
{25, 44},
{25, 47},
{25, 50},
{25, 52},
{25, 54},
{26, 27},
{26, 28},
{26, 31},
{26, 32},
{26, 33},
{26, 34},
{26, 35},
{26, 36},
{26, 37},
{26, 38},
{26, 39},
{26, 40},
{26, 41},
{26, 42},
{26, 43},
{26, 44},
{26, 46},
{26, 48},
{26, 49},
{26, 50},
{26, 55},
{26, 56},
{26, 57},
{26, 58},
{26, 60},
{27, 28},
{27, 29},
{27, 33},
{27, 35},
{27, 39},
{27, 40},
{27, 48},
{27, 49},
{27, 50},
{27, 52},
{27, 54},
{27, 57},
{28, 29},
{28, 31},
{28, 34},
{28, 35},
{28, 36},
{28, 39},
{28, 41},
{28, 42},
{28, 44},
{28, 45},
{28, 47},
{28, 51},
{28, 52},
{28, 54},
{28, 55},
{28, 57},
{28, 58},
{28, 60},
{29, 30},
{29, 31},
{29, 32},
{29, 33},
{29, 35},
{29, 37},
{29, 39},
{29, 42},
{29, 43},
{29, 45},
{29, 47},
{29, 48},
{29, 49},
{29, 53},
{29, 54},
{29, 55},
{29, 58},
{29, 59},
{30, 34},
{30, 35},
{30, 36},
{30, 38},
{30, 39},
{30, 42},
{30, 44},
{30, 45},
{30, 49},
{30, 50},
{30, 54},
{30, 55},
{30, 56},
{30, 57},
{30, 58},
{30, 59},
{30, 60},
{31, 33},
{31, 34},
{31, 35},
{31, 37},
{31, 41},
{31, 42},
{31, 43},
{31, 44},
{31, 48},
{31, 50},
{31, 54},
{31, 55},
{31, 56},
{31, 57},
{31, 59},
{31, 60},
{32, 34},
{32, 37},
{32, 41},
{32, 44},
{32, 45},
{32, 47},
{32, 50},
{32, 53},
{32, 56},
{32, 58},
{33, 36},
{33, 39},
{33, 42},
{33, 47},
{33, 49},
{33, 51},
{33, 52},
{33, 56},
{33, 57},
{33, 59},
{33, 60},
{34, 38},
{34, 41},
{34, 46},
{34, 47},
{34, 58},
{34, 59},
{35, 37},
{35, 40},
{35, 42},
{35, 45},
{35, 46},
{35, 51},
{35, 53},
{35, 54},
{35, 56},
{35, 58},
{35, 59},
{35, 60},
{36, 37},
{36, 38},
{36, 39},
{36, 40},
{36, 41},
{36, 43},
{36, 44},
{36, 46},
{36, 47},
{36, 53},
{36, 54},
{36, 55},
{36, 58},
{36, 59},
{37, 44},
{37, 47},
{37, 48},
{37, 50},
{37, 52},
{37, 54},
{37, 55},
{37, 56},
{37, 60},
{38, 41},
{38, 42},
{38, 43},
{38, 48},
{38, 49},
{38, 50},
{38, 51},
{38, 53},
{38, 54},
{38, 56},
{38, 58},
{38, 59},
{38, 60},
{39, 43},
{39, 44},
{39, 45},
{39, 47},
{39, 49},
{39, 52},
{39, 53},
{39, 55},
{39, 57},
{39, 58},
{39, 59},
{39, 60},
{40, 44},
{40, 47},
{40, 49},
{40, 53},
{40, 55},
{40, 56},
{40, 57},
{40, 58},
{40, 59},
{40, 60},
{41, 43},
{41, 45},
{41, 50},
{41, 53},
{41, 54},
{41, 55},
{41, 56},
{41, 57},
{41, 60},
{42, 43},
{42, 46},
{42, 48},
{42, 50},
{42, 51},
{42, 52},
{42, 53},
{42, 59},
{42, 60},
{43, 45},
{43, 46},
{43, 47},
{43, 48},
{43, 52},
{43, 53},
{43, 54},
{43, 56},
{43, 59},
{43, 60},
{44, 46},
{44, 47},
{44, 48},
{44, 50},
{44, 52},
{44, 53},
{44, 54},
{44, 56},
{44, 57},
{44, 58},
{45, 47},
{45, 49},
{45, 51},
{45, 54},
{45, 55},
{45, 58},
{45, 59},
{46, 47},
{46, 48},
{46, 49},
{46, 50},
{46, 52},
{46, 53},
{46, 54},
{46, 55},
{46, 58},
{47, 50},
{47, 52},
{47, 53},
{47, 55},
{47, 57},
{47, 58},
{47, 59},
{47, 60},
{48, 52},
{48, 53},
{48, 55},
{48, 56},
{48, 57},
{48, 59},
{48, 60},
{49, 51},
{49, 52},
{49, 53},
{49, 56},
{49, 58},
{49, 60},
{50, 52},
{50, 54},
{50, 55},
{50, 56},
{50, 57},
{51, 52},
{51, 53},
{51, 56},
{51, 57},
{51, 58},
{51, 59},
{52, 53},
{52, 54},
{52, 55},
{52, 57},
{52, 58},
{52, 60},
{53, 56},
{53, 58},
{53, 59},
{53, 60},
{54, 56},
{54, 59},
{54, 60},
{55, 60},
{56, 57},
{56, 58},
{56, 59},
{57, 58},
{57, 60},
{58, 60},
{59, 60}}
